c   #vars: 72   #clauses: 327   #literals: 900
c 
p cnf 72 327
-1 -2 0
19 37 38 -71 0
-5 -6 0
-7 -8 0
-9 -10 0
-11 -12 0
-13 -14 0
1 2 33 34 0
1 2 43 44 0
-15 -16 0
-17 -18 0
20 52 53 -56 0
-23 -24 0
-25 -26 0
-27 -28 0
-1 46 66 67 0
19 -37 47 48 0
-29 -30 0
4 50 51 -68 0
-31 -32 0
-33 -34 0
-35 -36 0
-37 -38 0
-39 -40 0
-41 -42 0
-43 -44 0
1 2 46 -66 0
9 10 49 -70 0
-47 -48 0
39 40 -49 70 0
-50 -51 0
-52 -53 0
13 14 31 32 0
-54 -55 0
-56 -57 0
-58 -59 0
-60 -61 0
-62 -63 0
-64 -65 0
15 16 66 67 0
-68 -69 0
47 48 66 67 0
33 34 60 61 0
13 14 62 63 0
1 2 50 51 0
-71 -72 0
43 44 50 51 0
-1 -33 0
-2 -34 0
-1 -43 0
-2 -44 0
35 36 64 65 0
9 10 49 -68 0
-2 -46 0
5 6 58 59 0
-1 -47 0
-2 -48 0
9 10 54 55 0
-1 -50 0
-2 -51 0
39 40 68 69 0
-1 -56 0
-2 -57 0
37 38 68 69 0
-1 -62 0
-2 -63 0
-1 -71 0
-2 -72 0
-3 -30 0
4 -29 50 51 0
13 14 45 -62 0
21 22 56 57 0
-3 -44 0
-3 -59 0
25 26 62 63 0
39 40 71 72 0
19 37 38 -47 0
-4 -30 0
19 -47 71 72 0
-4 -51 0
9 10 39 40 0
19 -37 71 72 0
-4 -69 0
-21 -22 0
-5 -33 0
-6 -34 0
-5 -52 0
-6 -53 0
-5 -54 0
-6 -55 0
31 32 56 57 0
-5 -58 0
-6 -59 0
-7 -33 0
-8 -34 0
-7 -35 0
-8 -36 0
23 24 41 42 0
-7 -39 0
-8 -40 0
4 -50 68 69 0
-7 -54 0
-8 -55 0
11 12 35 36 0
47 48 64 65 0
-9 -37 0
-10 -38 0
21 22 37 38 0
-9 -39 0
-10 -40 0
-18 49 -68 70 0
-18 39 40 70 0
-10 -49 0
-9 -54 0
-10 -55 0
-9 -56 0
-10 -57 0
41 42 64 65 0
-9 -60 0
-10 -61 0
-9 -40 49 70 0
9 10 60 61 0
3 29 30 -58 0
-11 -31 0
-12 -32 0
-11 -35 0
-12 -36 0
-11 -50 0
-12 -51 0
-11 -58 0
-12 -59 0
25 26 31 32 0
-13 -29 0
-14 -30 0
-13 -31 0
-14 -32 0
-13 -39 0
-14 -40 0
1 2 46 -62 0
-14 -45 0
33 34 54 55 0
-13 -62 0
-14 -63 0
33 34 50 51 0
-13 -66 0
-14 -67 0
5 6 33 34 0
41 42 54 55 0
-13 45 62 63 0
37 38 52 53 0
3 -29 58 59 0
25 26 52 53 0
-15 -27 0
-16 -28 0
1 2 71 72 0
-15 -54 0
-16 -55 0
23 24 52 53 0
-15 -64 0
-16 -65 0
3 29 30 -43 0
-15 -66 0
-16 -67 0
25 26 39 40 0
-17 -29 0
-18 -30 0
21 22 66 67 0
-17 -43 0
-18 -44 0
45 52 53 -62 0
-17 -68 0
-18 -69 0
15 16 54 55 0
-17 -70 0
31 32 66 67 0
20 -33 52 53 0
-19 -38 0
43 44 62 63 0
20 33 34 -56 0
-19 -48 0
43 44 58 59 0
20 33 34 -52 0
-19 -72 0
-13 45 52 53 0
-20 -34 0
15 16 27 28 0
-20 -53 0
17 18 43 44 0
3 -43 58 59 0
-20 -57 0
3 43 44 -58 0
-66 -67 0
7 8 39 40 0
20 -33 56 57 0
-21 -37 0
-22 -38 0
-21 -56 0
-22 -57 0
-21 -62 0
-22 -63 0
25 26 47 48 0
-21 -66 0
-22 -67 0
23 24 27 28 0
-23 -27 0
-24 -28 0
27 28 68 69 0
4 29 30 -68 0
13 14 45 -52 0
27 28 71 72 0
-23 -31 0
-24 -32 0
-23 -41 0
-24 -42 0
27 28 60 61 0
-23 -52 0
-24 -53 0
-25 -31 0
-26 -32 0
29 30 60 61 0
-25 -35 0
-26 -36 0
17 18 29 30 0
-25 -39 0
-26 -40 0
-25 -47 0
-26 -48 0
-25 -52 0
-26 -53 0
-25 -62 0
-26 -63 0
15 16 64 65 0
-27 -60 0
-28 -61 0
20 -52 56 57 0
-27 -68 0
-28 -69 0
41 42 56 57 0
-27 -71 0
-28 -72 0
23 24 31 32 0
-29 -50 0
-30 -51 0
46 -62 66 67 0
-29 -60 0
-30 -61 0
7 8 33 34 0
11 12 31 32 0
45 -52 62 63 0
25 26 35 36 0
-31 -56 0
-32 -57 0
7 8 35 36 0
-31 -66 0
-32 -67 0
7 8 54 55 0
-33 -50 0
-34 -51 0
13 14 29 30 0
-33 -54 0
-34 -55 0
3 -29 43 44 0
-33 -60 0
-34 -61 0
11 12 50 51 0
29 30 50 51 0
-35 -52 0
-36 -53 0
-35 -64 0
-36 -65 0
9 10 56 57 0
-37 -52 0
-38 -53 0
-37 -68 0
-38 -69 0
-39 -56 0
-40 -57 0
1 2 62 63 0
-39 -68 0
-40 -69 0
19 47 48 -71 0
-39 -70 0
5 6 52 53 0
-39 -71 0
-40 -72 0
-9 49 68 69 0
-41 -54 0
-42 -55 0
-40 49 -68 70 0
-41 -56 0
-42 -57 0
-9 -18 49 70 0
-41 -64 0
-42 -65 0
5 6 54 55 0
-43 -50 0
-44 -51 0
9 10 37 38 0
-43 -58 0
-44 -59 0
35 36 52 53 0
-43 -62 0
-44 -63 0
17 18 68 69 0
46 62 63 -66 0
-45 -53 0
13 14 39 40 0
-1 46 62 63 0
-45 -63 0
1 2 47 48 0
-46 -63 0
-46 -67 0
1 2 56 57 0
-47 -64 0
-48 -65 0
11 12 58 59 0
-47 -66 0
-48 -67 0
39 40 56 57 0
17 18 -49 70 0
-49 -69 0
49 68 69 -70 0
17 18 -40 70 0
21 22 62 63 0
4 29 30 -50 0
4 -29 68 69 0
13 14 66 67 0
